<?xml version = "1.0" standalone="yes"?>
<!-- This file has been generated by DOcplex version 2.23.222  -->
<CPLEXSolution version="1.0">
 <header
   problemName="CVRP"
   objectiveValue="11948.8"
  />
 <variables>
  <variable name="x_0_3" index="2" value="1.00000"/>
  <variable name="x_0_4" index="3" value="1.00000"/>
  <variable name="x_0_5" index="4" value="1.00000"/>
  <variable name="x_0_9" index="8" value="1.00000"/>
  <variable name="x_0_10" index="9" value="1.00000"/>
  <variable name="x_0_11" index="10" value="1.00000"/>
  <variable name="x_0_12" index="11" value="1.00000"/>
  <variable name="x_0_17" index="16" value="1.00000"/>
  <variable name="x_0_21" index="20" value="1.00000"/>
  <variable name="x_0_22" index="21" value="1.00000"/>
  <variable name="x_0_23" index="22" value="1.00000"/>
  <variable name="x_0_24" index="23" value="1.00000"/>
  <variable name="x_1_19" index="45" value="1.00000"/>
  <variable name="x_2_6" index="59" value="1.00000"/>
  <variable name="x_3_25" index="105" value="1.00000"/>
  <variable name="x_4_27" index="134" value="1.00000"/>
  <variable name="x_5_2" index="137" value="1.00000"/>
  <variable name="x_6_0" index="162" value="1.00000"/>
  <variable name="x_7_0" index="189" value="1.00000"/>
  <variable name="x_8_0" index="216" value="1.00000"/>
  <variable name="x_9_13" index="255" value="1.00000"/>
  <variable name="x_10_15" index="284" value="1.00000"/>
  <variable name="x_11_0" index="297" value="1.00000"/>
  <variable name="x_12_0" index="324" value="1.00000"/>
  <variable name="x_13_7" index="358" value="1.00000"/>
  <variable name="x_14_8" index="386" value="1.00000"/>
  <variable name="x_15_0" index="405" value="1.00000"/>
  <variable name="x_16_0" index="432" value="1.00000"/>
  <variable name="x_17_0" index="459" value="1.00000"/>
  <variable name="x_18_0" index="486" value="1.00000"/>
  <variable name="x_19_16" index="529" value="1.00000"/>
  <variable name="x_20_26" index="565" value="1.00000"/>
  <variable name="x_21_1" index="568" value="1.00000"/>
  <variable name="x_22_18" index="612" value="1.00000"/>
  <variable name="x_23_14" index="635" value="1.00000"/>
  <variable name="x_24_0" index="648" value="1.00000"/>
  <variable name="x_25_0" index="675" value="1.00000"/>
  <variable name="x_26_0" index="702" value="1.00000"/>
  <variable name="x_27_20" index="749" value="1.00000"/>
  <variable name="u_1" index="756" value="27.00000"/>
  <variable name="u_2" index="757" value="32.00000"/>
  <variable name="u_3" index="758" value="14.00000"/>
  <variable name="u_4" index="759" value="6.00000"/>
  <variable name="u_5" index="760" value="21.00000"/>
  <variable name="u_6" index="761" value="44.00000"/>
  <variable name="u_7" index="762" value="45.00000"/>
  <variable name="u_8" index="763" value="45.00000"/>
  <variable name="u_9" index="764" value="16.00000"/>
  <variable name="u_10" index="765" value="27.00000"/>
  <variable name="u_11" index="766" value="38.00000"/>
  <variable name="u_12" index="767" value="31.00000"/>
  <variable name="u_13" index="768" value="26.00000"/>
  <variable name="u_14" index="769" value="36.00000"/>
  <variable name="u_15" index="770" value="37.00000"/>
  <variable name="u_16" index="771" value="45.00000"/>
  <variable name="u_17" index="772" value="45.00000"/>
  <variable name="u_18" index="773" value="36.00000"/>
  <variable name="u_19" index="774" value="34.00000"/>
  <variable name="u_20" index="775" value="41.00000"/>
  <variable name="u_21" index="776" value="23.00000"/>
  <variable name="u_22" index="777" value="22.00000"/>
  <variable name="u_23" index="778" value="8.00000"/>
  <variable name="u_24" index="779" value="44.00000"/>
  <variable name="u_25" index="780" value="40.00000"/>
  <variable name="u_26" index="781" value="43.00000"/>
  <variable name="u_27" index="782" value="13.00000"/>
 </variables>
</CPLEXSolution>
